10J3M/DAT/10J3MUNX-20.dat
10 3
17.2575 4.1542
14.9277 3.8636
42.4579 6.516
26.9714 5.1934
36.1784 6.0148
49.2884 7.0206
6.5541 2.5601
6.1557 2.4811
18.9922 4.358
32.423 5.6941
47.8559