10J3M/SOL/10J3MUNX-20.sol
solution status: optimal solution found
objective value:                     83.7354333333333
x#1#3                                               1 	(obj:0)
x#2#3                                               1 	(obj:0)
x#3#2                                               1 	(obj:0)
x#4#1                                0.26410073880728 	(obj:0)
x#4#3                                0.73589926119272 	(obj:0)
x#5#1                                               1 	(obj:0)
x#6#1                               0.820352591414343 	(obj:0)
x#6#2                               0.179647408585658 	(obj:0)
x#7#3                                               1 	(obj:0)
x#8#3                                               1 	(obj:0)
x#9#3                                               1 	(obj:0)
x#10#2                                              1 	(obj:0)
z                                    83.7354333333333 	(obj:1)
